(set-logic HORN)
(declare-fun assign_376_34_10_abs0123 (Int Int Int Int Int Int Int Int Int Int) Bool)
(declare-fun assert_367_33_10_abs0123 (Int Int Int Int Int Int Int Int Int Int) Bool)
(declare-fun assert_349_32_3_abs0123 (Int Int Int Int Int Int Int Int Int Int) Bool)
(declare-fun assert_331_31_10_abs0123 (Int Int Int Int Int Int Int Int Int Int) Bool)
(declare-fun assert_298_30_10_abs0123 (Int Int Int Int Int Int Int Int Int Int) Bool)
(declare-fun while_379_29_8_abs0123 (Int Int Int Int Int Int Int Int Int Int) Bool)
(declare-fun assign_257_28_1_abs0123 (Int Int Int Int Int Int Int Int Int Int) Bool)
(declare-fun assign_248_25_5_abs0123 (Int Int Int Int Int Int Int Int Int Int) Bool)
(declare-fun arrayassign_239_24_5_abs0123 (Int Int Int Int Int Int Int Int Int Int) Bool)
(declare-fun arrayassign_225_23_5_abs0123 (Int Int Int Int Int Int Int Int Int Int) Bool)
(declare-fun assert_211_22_12_abs0123 (Int Int Int Int Int Int Int Int Int Int) Bool)
(declare-fun assert_178_21_12_abs0123 (Int Int Int Int Int Int Int Int Int Int) Bool)
(declare-fun while_251_20_1_abs0123 (Int Int Int Int Int Int Int Int Int Int) Bool)
(declare-fun assign_137_19_1_abs0123 (Int Int Int Int Int Int Int Int Int Int) Bool)
(declare-fun assign_128_17_5_abs0123 (Int Int Int Int Int Int Int Int Int Int) Bool)
(declare-fun arrayassign_119_16_12_abs0123 (Int Int Int Int Int Int Int Int Int Int) Bool)
(declare-fun arrayassign_105_15_5_abs0123 (Int Int Int Int Int Int Int Int Int Int) Bool)
(declare-fun while_131_13_1_abs0123 (Int Int Int Int Int Int Int Int Int Int) Bool)
(declare-fun assign_83_12_8_abs0123 (Int Int Int Int Int Int Int Int Int Int) Bool)
(declare-fun assign_77_11_1_abs0123 (Int Int Int Int Int Int Int Int Int Int) Bool)
(declare-fun end_abs0123 (Int Int Int Int Int Int Int Int Int Int) Bool)
(declare-fun start_abs0123 (Int Int Int Int Int Int Int Int Int Int) Bool)
(assert (forall ((b_copy (Array Int Int)) (a_copy (Array Int Int)) (b (Array Int Int)) (a (Array Int Int)) (N Int) (i Int) (vabs_f_f Int) (vabs_s_f_f Int) (vabs_s_s_f_f Int) (vabs_s_s_s_f_f Int)) (start_abs0123 vabs_f_f (select b_copy vabs_f_f) vabs_s_f_f (select a_copy vabs_s_f_f) vabs_s_s_f_f (select b vabs_s_s_f_f) vabs_s_s_s_f_f (select a vabs_s_s_s_f_f) N i)))
(assert (forall ((i Int) (N Int) (a (Array Int Int)) (b (Array Int Int)) (a_copy (Array Int Int)) (b_copy (Array Int Int)) (vabs_0_f_f Int) (vabs_0_s_f_f Int) (vabs_0_s_s_f_f Int) (vabs_0_s_s_s_f_f Int)) (=> (start_abs0123 vabs_0_f_f (select b_copy vabs_0_f_f) vabs_0_s_f_f (select a_copy vabs_0_s_f_f) vabs_0_s_s_f_f (select b vabs_0_s_s_f_f) vabs_0_s_s_s_f_f (select a vabs_0_s_s_s_f_f) N i) (assign_77_11_1_abs0123 vabs_0_f_f (select b_copy vabs_0_f_f) vabs_0_s_f_f (select a_copy vabs_0_s_f_f) vabs_0_s_s_f_f (select b vabs_0_s_s_f_f) vabs_0_s_s_s_f_f (select a vabs_0_s_s_s_f_f) N i))))
(assert (forall ((rnd Int) (i Int) (N Int) (a (Array Int Int)) (b (Array Int Int)) (a_copy (Array Int Int)) (b_copy (Array Int Int)) (vabs_0_f_f Int) (vabs_0_s_f_f Int) (vabs_0_s_s_f_f Int) (vabs_0_s_s_s_f_f Int)) (=> (assign_77_11_1_abs0123 vabs_0_f_f (select b_copy vabs_0_f_f) vabs_0_s_f_f (select a_copy vabs_0_s_f_f) vabs_0_s_s_f_f (select b vabs_0_s_s_f_f) vabs_0_s_s_s_f_f (select a vabs_0_s_s_s_f_f) N i) (assign_83_12_8_abs0123 vabs_0_f_f (select b_copy vabs_0_f_f) vabs_0_s_f_f (select a_copy vabs_0_s_f_f) vabs_0_s_s_f_f (select b vabs_0_s_s_f_f) vabs_0_s_s_s_f_f (select a vabs_0_s_s_s_f_f) rnd i))))
(assert (forall ((i Int) (N Int) (a (Array Int Int)) (b (Array Int Int)) (a_copy (Array Int Int)) (b_copy (Array Int Int)) (vabs_0_f_f Int) (vabs_0_s_f_f Int) (vabs_0_s_s_f_f Int) (vabs_0_s_s_s_f_f Int)) (=> (assign_83_12_8_abs0123 vabs_0_f_f (select b_copy vabs_0_f_f) vabs_0_s_f_f (select a_copy vabs_0_s_f_f) vabs_0_s_s_f_f (select b vabs_0_s_s_f_f) vabs_0_s_s_s_f_f (select a vabs_0_s_s_s_f_f) N i) (while_131_13_1_abs0123 vabs_0_f_f (select b_copy vabs_0_f_f) vabs_0_s_f_f (select a_copy vabs_0_s_f_f) vabs_0_s_s_f_f (select b vabs_0_s_s_f_f) vabs_0_s_s_s_f_f (select a vabs_0_s_s_s_f_f) N 0))))
(assert (forall ((b_copy (Array Int Int)) (a_copy (Array Int Int)) (b (Array Int Int)) (a (Array Int Int)) (N Int) (i Int) (vabs_0_f_f Int) (vabs_0_s_f_f Int) (vabs_0_s_s_f_f Int) (vabs_0_s_s_s_f_f Int)) (=> (and (while_131_13_1_abs0123 vabs_0_f_f (select b_copy vabs_0_f_f) vabs_0_s_f_f (select a_copy vabs_0_s_f_f) vabs_0_s_s_f_f (select b vabs_0_s_s_f_f) vabs_0_s_s_s_f_f (select a vabs_0_s_s_s_f_f) N i) (< i N)) (arrayassign_105_15_5_abs0123 vabs_0_f_f (select b_copy vabs_0_f_f) vabs_0_s_f_f (select a_copy vabs_0_s_f_f) vabs_0_s_s_f_f (select b vabs_0_s_s_f_f) vabs_0_s_s_s_f_f (select a vabs_0_s_s_s_f_f) N i))))
(assert (forall ((b_copy (Array Int Int)) (a_copy (Array Int Int)) (b (Array Int Int)) (a (Array Int Int)) (N Int) (i Int) (vabs_0_f_f Int) (vabs_0_s_f_f Int) (vabs_0_s_s_f_f Int) (vabs_0_s_s_s_f_f Int)) (=> (and (while_131_13_1_abs0123 vabs_0_f_f (select b_copy vabs_0_f_f) vabs_0_s_f_f (select a_copy vabs_0_s_f_f) vabs_0_s_s_f_f (select b vabs_0_s_s_f_f) vabs_0_s_s_s_f_f (select a vabs_0_s_s_s_f_f) N i) (not (< i N))) (assign_137_19_1_abs0123 vabs_0_f_f (select b_copy vabs_0_f_f) vabs_0_s_f_f (select a_copy vabs_0_s_f_f) vabs_0_s_s_f_f (select b vabs_0_s_s_f_f) vabs_0_s_s_s_f_f (select a vabs_0_s_s_s_f_f) N i))))
(assert (forall ((i Int) (N Int) (a (Array Int Int)) (b (Array Int Int)) (a_copy (Array Int Int)) (b_copy (Array Int Int)) (vabs_0_f_f Int) (vabs_0_s_f_f Int) (vabs_0_s_s_f_f Int) (vabs_0_s_s_s_f_f Int)) (=> (and (arrayassign_105_15_5_abs0123 vabs_0_f_f (select b_copy vabs_0_f_f) vabs_0_s_f_f (select a_copy vabs_0_s_f_f) vabs_0_s_s_f_f (select b vabs_0_s_s_f_f) vabs_0_s_s_s_f_f (select a vabs_0_s_s_s_f_f) N i) (arrayassign_105_15_5_abs0123 vabs_0_f_f (select b_copy vabs_0_f_f) vabs_0_s_f_f (select a_copy vabs_0_s_f_f) vabs_0_s_s_f_f (select b vabs_0_s_s_f_f) i (select a i) N i)) (arrayassign_119_16_12_abs0123 vabs_0_f_f (select b_copy vabs_0_f_f) vabs_0_s_f_f (select (store a_copy i (select a i)) vabs_0_s_f_f) vabs_0_s_s_f_f (select b vabs_0_s_s_f_f) vabs_0_s_s_s_f_f (select a vabs_0_s_s_s_f_f) N i))))
(assert (forall ((i Int) (N Int) (a (Array Int Int)) (b (Array Int Int)) (a_copy (Array Int Int)) (b_copy (Array Int Int)) (vabs_0_f_f Int) (vabs_0_s_f_f Int) (vabs_0_s_s_f_f Int) (vabs_0_s_s_s_f_f Int)) (=> (and (arrayassign_119_16_12_abs0123 vabs_0_f_f (select b_copy vabs_0_f_f) vabs_0_s_f_f (select a_copy vabs_0_s_f_f) vabs_0_s_s_f_f (select b vabs_0_s_s_f_f) vabs_0_s_s_s_f_f (select a vabs_0_s_s_s_f_f) N i) (arrayassign_119_16_12_abs0123 vabs_0_f_f (select b_copy vabs_0_f_f) vabs_0_s_f_f (select a_copy vabs_0_s_f_f) i (select b i) vabs_0_s_s_s_f_f (select a vabs_0_s_s_s_f_f) N i)) (assign_128_17_5_abs0123 vabs_0_f_f (select (store b_copy i (select b i)) vabs_0_f_f) vabs_0_s_f_f (select a_copy vabs_0_s_f_f) vabs_0_s_s_f_f (select b vabs_0_s_s_f_f) vabs_0_s_s_s_f_f (select a vabs_0_s_s_s_f_f) N i))))
(assert (forall ((i Int) (N Int) (a (Array Int Int)) (b (Array Int Int)) (a_copy (Array Int Int)) (b_copy (Array Int Int)) (vabs_0_f_f Int) (vabs_0_s_f_f Int) (vabs_0_s_s_f_f Int) (vabs_0_s_s_s_f_f Int)) (=> (assign_128_17_5_abs0123 vabs_0_f_f (select b_copy vabs_0_f_f) vabs_0_s_f_f (select a_copy vabs_0_s_f_f) vabs_0_s_s_f_f (select b vabs_0_s_s_f_f) vabs_0_s_s_s_f_f (select a vabs_0_s_s_s_f_f) N i) (while_131_13_1_abs0123 vabs_0_f_f (select b_copy vabs_0_f_f) vabs_0_s_f_f (select a_copy vabs_0_s_f_f) vabs_0_s_s_f_f (select b vabs_0_s_s_f_f) vabs_0_s_s_s_f_f (select a vabs_0_s_s_s_f_f) N (+ i 1)))))
(assert (forall ((i Int) (N Int) (a (Array Int Int)) (b (Array Int Int)) (a_copy (Array Int Int)) (b_copy (Array Int Int)) (vabs_0_f_f Int) (vabs_0_s_f_f Int) (vabs_0_s_s_f_f Int) (vabs_0_s_s_s_f_f Int)) (=> (assign_137_19_1_abs0123 vabs_0_f_f (select b_copy vabs_0_f_f) vabs_0_s_f_f (select a_copy vabs_0_s_f_f) vabs_0_s_s_f_f (select b vabs_0_s_s_f_f) vabs_0_s_s_s_f_f (select a vabs_0_s_s_s_f_f) N i) (while_251_20_1_abs0123 vabs_0_f_f (select b_copy vabs_0_f_f) vabs_0_s_f_f (select a_copy vabs_0_s_f_f) vabs_0_s_s_f_f (select b vabs_0_s_s_f_f) vabs_0_s_s_s_f_f (select a vabs_0_s_s_s_f_f) N 0))))
(assert (forall ((b_copy (Array Int Int)) (a_copy (Array Int Int)) (b (Array Int Int)) (a (Array Int Int)) (N Int) (i Int) (vabs_0_f_f Int) (vabs_0_s_f_f Int) (vabs_0_s_s_f_f Int) (vabs_0_s_s_s_f_f Int)) (=> (and (while_251_20_1_abs0123 vabs_0_f_f (select b_copy vabs_0_f_f) vabs_0_s_f_f (select a_copy vabs_0_s_f_f) vabs_0_s_s_f_f (select b vabs_0_s_s_f_f) vabs_0_s_s_s_f_f (select a vabs_0_s_s_s_f_f) N i) (< i N)) (assert_178_21_12_abs0123 vabs_0_f_f (select b_copy vabs_0_f_f) vabs_0_s_f_f (select a_copy vabs_0_s_f_f) vabs_0_s_s_f_f (select b vabs_0_s_s_f_f) vabs_0_s_s_s_f_f (select a vabs_0_s_s_s_f_f) N i))))
(assert (forall ((b_copy (Array Int Int)) (a_copy (Array Int Int)) (b (Array Int Int)) (a (Array Int Int)) (N Int) (i Int) (vabs_0_f_f Int) (vabs_0_s_f_f Int) (vabs_0_s_s_f_f Int) (vabs_0_s_s_s_f_f Int)) (=> (and (while_251_20_1_abs0123 vabs_0_f_f (select b_copy vabs_0_f_f) vabs_0_s_f_f (select a_copy vabs_0_s_f_f) vabs_0_s_s_f_f (select b vabs_0_s_s_f_f) vabs_0_s_s_s_f_f (select a vabs_0_s_s_s_f_f) N i) (not (< i N))) (assign_257_28_1_abs0123 vabs_0_f_f (select b_copy vabs_0_f_f) vabs_0_s_f_f (select a_copy vabs_0_s_f_f) vabs_0_s_s_f_f (select b vabs_0_s_s_f_f) vabs_0_s_s_s_f_f (select a vabs_0_s_s_s_f_f) N i))))
(assert (forall ((k Int) (i Int) (N Int) (a (Array Int Int)) (b (Array Int Int)) (a_copy (Array Int Int)) (b_copy (Array Int Int))) (=> (and (assert_178_21_12_abs0123 0 (select b_copy 0) k (select a_copy k) k (select b k) 0 (select a 0) N i) (<= 0 k) (< k i)) (= (select a_copy k) (select b k)))))
(assert (forall ((i Int) (N Int) (a (Array Int Int)) (b (Array Int Int)) (a_copy (Array Int Int)) (b_copy (Array Int Int)) (vabs_0_f_f Int) (vabs_0_s_f_f Int) (vabs_0_s_s_f_f Int) (vabs_0_s_s_s_f_f Int)) (=> (assert_178_21_12_abs0123 vabs_0_f_f (select b_copy vabs_0_f_f) vabs_0_s_f_f (select a_copy vabs_0_s_f_f) vabs_0_s_s_f_f (select b vabs_0_s_s_f_f) vabs_0_s_s_s_f_f (select a vabs_0_s_s_s_f_f) N i) (assert_211_22_12_abs0123 vabs_0_f_f (select b_copy vabs_0_f_f) vabs_0_s_f_f (select a_copy vabs_0_s_f_f) vabs_0_s_s_f_f (select b vabs_0_s_s_f_f) vabs_0_s_s_s_f_f (select a vabs_0_s_s_s_f_f) N i))))
(assert (forall ((k Int) (i Int) (N Int) (a (Array Int Int)) (b (Array Int Int)) (a_copy (Array Int Int)) (b_copy (Array Int Int))) (=> (and (assert_211_22_12_abs0123 k (select b_copy k) 0 (select a_copy 0) 0 (select b 0) k (select a k) N i) (<= 0 k) (< k i)) (= (select b_copy k) (select a k)))))
(assert (forall ((i Int) (N Int) (a (Array Int Int)) (b (Array Int Int)) (a_copy (Array Int Int)) (b_copy (Array Int Int)) (vabs_0_f_f Int) (vabs_0_s_f_f Int) (vabs_0_s_s_f_f Int) (vabs_0_s_s_s_f_f Int)) (=> (assert_211_22_12_abs0123 vabs_0_f_f (select b_copy vabs_0_f_f) vabs_0_s_f_f (select a_copy vabs_0_s_f_f) vabs_0_s_s_f_f (select b vabs_0_s_s_f_f) vabs_0_s_s_s_f_f (select a vabs_0_s_s_s_f_f) N i) (arrayassign_225_23_5_abs0123 vabs_0_f_f (select b_copy vabs_0_f_f) vabs_0_s_f_f (select a_copy vabs_0_s_f_f) vabs_0_s_s_f_f (select b vabs_0_s_s_f_f) vabs_0_s_s_s_f_f (select a vabs_0_s_s_s_f_f) N i))))
(assert (forall ((i Int) (N Int) (a (Array Int Int)) (b (Array Int Int)) (a_copy (Array Int Int)) (b_copy (Array Int Int)) (vabs_0_f_f Int) (vabs_0_s_f_f Int) (vabs_0_s_s_f_f Int) (vabs_0_s_s_s_f_f Int)) (=> (and (arrayassign_225_23_5_abs0123 vabs_0_f_f (select b_copy vabs_0_f_f) vabs_0_s_f_f (select a_copy vabs_0_s_f_f) vabs_0_s_s_f_f (select b vabs_0_s_s_f_f) vabs_0_s_s_s_f_f (select a vabs_0_s_s_s_f_f) N i) (arrayassign_225_23_5_abs0123 vabs_0_f_f (select b_copy vabs_0_f_f) vabs_0_s_f_f (select a_copy vabs_0_s_f_f) i (select b i) vabs_0_s_s_s_f_f (select a vabs_0_s_s_s_f_f) N i)) (arrayassign_239_24_5_abs0123 vabs_0_f_f (select b_copy vabs_0_f_f) vabs_0_s_f_f (select (store a_copy i (select b i)) vabs_0_s_f_f) vabs_0_s_s_f_f (select b vabs_0_s_s_f_f) vabs_0_s_s_s_f_f (select a vabs_0_s_s_s_f_f) N i))))
(assert (forall ((i Int) (N Int) (a (Array Int Int)) (b (Array Int Int)) (a_copy (Array Int Int)) (b_copy (Array Int Int)) (vabs_0_f_f Int) (vabs_0_s_f_f Int) (vabs_0_s_s_f_f Int) (vabs_0_s_s_s_f_f Int)) (=> (and (arrayassign_239_24_5_abs0123 vabs_0_f_f (select b_copy vabs_0_f_f) vabs_0_s_f_f (select a_copy vabs_0_s_f_f) vabs_0_s_s_f_f (select b vabs_0_s_s_f_f) vabs_0_s_s_s_f_f (select a vabs_0_s_s_s_f_f) N i) (arrayassign_239_24_5_abs0123 vabs_0_f_f (select b_copy vabs_0_f_f) vabs_0_s_f_f (select a_copy vabs_0_s_f_f) vabs_0_s_s_f_f (select b vabs_0_s_s_f_f) i (select a i) N i)) (assign_248_25_5_abs0123 vabs_0_f_f (select (store b_copy i (select a i)) vabs_0_f_f) vabs_0_s_f_f (select a_copy vabs_0_s_f_f) vabs_0_s_s_f_f (select b vabs_0_s_s_f_f) vabs_0_s_s_s_f_f (select a vabs_0_s_s_s_f_f) N i))))
(assert (forall ((i Int) (N Int) (a (Array Int Int)) (b (Array Int Int)) (a_copy (Array Int Int)) (b_copy (Array Int Int)) (vabs_0_f_f Int) (vabs_0_s_f_f Int) (vabs_0_s_s_f_f Int) (vabs_0_s_s_s_f_f Int)) (=> (assign_248_25_5_abs0123 vabs_0_f_f (select b_copy vabs_0_f_f) vabs_0_s_f_f (select a_copy vabs_0_s_f_f) vabs_0_s_s_f_f (select b vabs_0_s_s_f_f) vabs_0_s_s_s_f_f (select a vabs_0_s_s_s_f_f) N i) (while_251_20_1_abs0123 vabs_0_f_f (select b_copy vabs_0_f_f) vabs_0_s_f_f (select a_copy vabs_0_s_f_f) vabs_0_s_s_f_f (select b vabs_0_s_s_f_f) vabs_0_s_s_s_f_f (select a vabs_0_s_s_s_f_f) N (+ i 1)))))
(assert (forall ((i Int) (N Int) (a (Array Int Int)) (b (Array Int Int)) (a_copy (Array Int Int)) (b_copy (Array Int Int)) (vabs_0_f_f Int) (vabs_0_s_f_f Int) (vabs_0_s_s_f_f Int) (vabs_0_s_s_s_f_f Int)) (=> (assign_257_28_1_abs0123 vabs_0_f_f (select b_copy vabs_0_f_f) vabs_0_s_f_f (select a_copy vabs_0_s_f_f) vabs_0_s_s_f_f (select b vabs_0_s_s_f_f) vabs_0_s_s_s_f_f (select a vabs_0_s_s_s_f_f) N i) (while_379_29_8_abs0123 vabs_0_f_f (select b_copy vabs_0_f_f) vabs_0_s_f_f (select a_copy vabs_0_s_f_f) vabs_0_s_s_f_f (select b vabs_0_s_s_f_f) vabs_0_s_s_s_f_f (select a vabs_0_s_s_s_f_f) N 0))))
(assert (forall ((b_copy (Array Int Int)) (a_copy (Array Int Int)) (b (Array Int Int)) (a (Array Int Int)) (N Int) (i Int) (vabs_0_f_f Int) (vabs_0_s_f_f Int) (vabs_0_s_s_f_f Int) (vabs_0_s_s_s_f_f Int)) (=> (and (while_379_29_8_abs0123 vabs_0_f_f (select b_copy vabs_0_f_f) vabs_0_s_f_f (select a_copy vabs_0_s_f_f) vabs_0_s_s_f_f (select b vabs_0_s_s_f_f) vabs_0_s_s_s_f_f (select a vabs_0_s_s_s_f_f) N i) (< i N)) (assert_298_30_10_abs0123 vabs_0_f_f (select b_copy vabs_0_f_f) vabs_0_s_f_f (select a_copy vabs_0_s_f_f) vabs_0_s_s_f_f (select b vabs_0_s_s_f_f) vabs_0_s_s_s_f_f (select a vabs_0_s_s_s_f_f) N i))))
(assert (forall ((b_copy (Array Int Int)) (a_copy (Array Int Int)) (b (Array Int Int)) (a (Array Int Int)) (N Int) (i Int) (vabs_0_f_f Int) (vabs_0_s_f_f Int) (vabs_0_s_s_f_f Int) (vabs_0_s_s_s_f_f Int)) (=> (and (while_379_29_8_abs0123 vabs_0_f_f (select b_copy vabs_0_f_f) vabs_0_s_f_f (select a_copy vabs_0_s_f_f) vabs_0_s_s_f_f (select b vabs_0_s_s_f_f) vabs_0_s_s_s_f_f (select a vabs_0_s_s_s_f_f) N i) (not (< i N))) (end_abs0123 vabs_0_f_f (select b_copy vabs_0_f_f) vabs_0_s_f_f (select a_copy vabs_0_s_f_f) vabs_0_s_s_f_f (select b vabs_0_s_s_f_f) vabs_0_s_s_s_f_f (select a vabs_0_s_s_s_f_f) N i))))
(assert (forall ((k Int) (i Int) (N Int) (a (Array Int Int)) (b (Array Int Int)) (a_copy (Array Int Int)) (b_copy (Array Int Int))) (=> (and (assert_298_30_10_abs0123 0 (select b_copy 0) k (select a_copy k) k (select b k) 0 (select a 0) N i) (<= 0 k) (< k N)) (= (select a_copy k) (select b k)))))
(assert (forall ((i Int) (N Int) (a (Array Int Int)) (b (Array Int Int)) (a_copy (Array Int Int)) (b_copy (Array Int Int)) (vabs_0_f_f Int) (vabs_0_s_f_f Int) (vabs_0_s_s_f_f Int) (vabs_0_s_s_s_f_f Int)) (=> (assert_298_30_10_abs0123 vabs_0_f_f (select b_copy vabs_0_f_f) vabs_0_s_f_f (select a_copy vabs_0_s_f_f) vabs_0_s_s_f_f (select b vabs_0_s_s_f_f) vabs_0_s_s_s_f_f (select a vabs_0_s_s_s_f_f) N i) (assert_331_31_10_abs0123 vabs_0_f_f (select b_copy vabs_0_f_f) vabs_0_s_f_f (select a_copy vabs_0_s_f_f) vabs_0_s_s_f_f (select b vabs_0_s_s_f_f) vabs_0_s_s_s_f_f (select a vabs_0_s_s_s_f_f) N i))))
(assert (forall ((k Int) (i Int) (N Int) (a (Array Int Int)) (b (Array Int Int)) (a_copy (Array Int Int)) (b_copy (Array Int Int))) (=> (and (assert_331_31_10_abs0123 k (select b_copy k) 0 (select a_copy 0) 0 (select b 0) k (select a k) N i) (<= 0 k) (< k N)) (= (select b_copy k) (select a k)))))
(assert (forall ((i Int) (N Int) (a (Array Int Int)) (b (Array Int Int)) (a_copy (Array Int Int)) (b_copy (Array Int Int)) (vabs_0_f_f Int) (vabs_0_s_f_f Int) (vabs_0_s_s_f_f Int) (vabs_0_s_s_s_f_f Int)) (=> (assert_331_31_10_abs0123 vabs_0_f_f (select b_copy vabs_0_f_f) vabs_0_s_f_f (select a_copy vabs_0_s_f_f) vabs_0_s_s_f_f (select b vabs_0_s_s_f_f) vabs_0_s_s_s_f_f (select a vabs_0_s_s_s_f_f) N i) (assert_349_32_3_abs0123 vabs_0_f_f (select b_copy vabs_0_f_f) vabs_0_s_f_f (select a_copy vabs_0_s_f_f) vabs_0_s_s_f_f (select b vabs_0_s_s_f_f) vabs_0_s_s_s_f_f (select a vabs_0_s_s_s_f_f) N i))))
(assert (forall ((i Int) (N Int) (a (Array Int Int)) (b (Array Int Int)) (a_copy (Array Int Int)) (b_copy (Array Int Int))) (=> (assert_349_32_3_abs0123 i (select b_copy i) 0 (select a_copy 0) 0 (select b 0) i (select a i) N i) (= (select a i) (select b_copy i)))))
(assert (forall ((i Int) (N Int) (a (Array Int Int)) (b (Array Int Int)) (a_copy (Array Int Int)) (b_copy (Array Int Int)) (vabs_0_f_f Int) (vabs_0_s_f_f Int) (vabs_0_s_s_f_f Int) (vabs_0_s_s_s_f_f Int)) (=> (assert_349_32_3_abs0123 vabs_0_f_f (select b_copy vabs_0_f_f) vabs_0_s_f_f (select a_copy vabs_0_s_f_f) vabs_0_s_s_f_f (select b vabs_0_s_s_f_f) vabs_0_s_s_s_f_f (select a vabs_0_s_s_s_f_f) N i) (assert_367_33_10_abs0123 vabs_0_f_f (select b_copy vabs_0_f_f) vabs_0_s_f_f (select a_copy vabs_0_s_f_f) vabs_0_s_s_f_f (select b vabs_0_s_s_f_f) vabs_0_s_s_s_f_f (select a vabs_0_s_s_s_f_f) N i))))
(assert (forall ((i Int) (N Int) (a (Array Int Int)) (b (Array Int Int)) (a_copy (Array Int Int)) (b_copy (Array Int Int))) (=> (assert_367_33_10_abs0123 0 (select b_copy 0) i (select a_copy i) i (select b i) 0 (select a 0) N i) (= (select b i) (select a_copy i)))))
(assert (forall ((i Int) (N Int) (a (Array Int Int)) (b (Array Int Int)) (a_copy (Array Int Int)) (b_copy (Array Int Int)) (vabs_0_f_f Int) (vabs_0_s_f_f Int) (vabs_0_s_s_f_f Int) (vabs_0_s_s_s_f_f Int)) (=> (assert_367_33_10_abs0123 vabs_0_f_f (select b_copy vabs_0_f_f) vabs_0_s_f_f (select a_copy vabs_0_s_f_f) vabs_0_s_s_f_f (select b vabs_0_s_s_f_f) vabs_0_s_s_s_f_f (select a vabs_0_s_s_s_f_f) N i) (assign_376_34_10_abs0123 vabs_0_f_f (select b_copy vabs_0_f_f) vabs_0_s_f_f (select a_copy vabs_0_s_f_f) vabs_0_s_s_f_f (select b vabs_0_s_s_f_f) vabs_0_s_s_s_f_f (select a vabs_0_s_s_s_f_f) N i))))
(assert (forall ((i Int) (N Int) (a (Array Int Int)) (b (Array Int Int)) (a_copy (Array Int Int)) (b_copy (Array Int Int)) (vabs_0_f_f Int) (vabs_0_s_f_f Int) (vabs_0_s_s_f_f Int) (vabs_0_s_s_s_f_f Int)) (=> (assign_376_34_10_abs0123 vabs_0_f_f (select b_copy vabs_0_f_f) vabs_0_s_f_f (select a_copy vabs_0_s_f_f) vabs_0_s_s_f_f (select b vabs_0_s_s_f_f) vabs_0_s_s_s_f_f (select a vabs_0_s_s_s_f_f) N i) (while_379_29_8_abs0123 vabs_0_f_f (select b_copy vabs_0_f_f) vabs_0_s_f_f (select a_copy vabs_0_s_f_f) vabs_0_s_s_f_f (select b vabs_0_s_s_f_f) vabs_0_s_s_s_f_f (select a vabs_0_s_s_s_f_f) N (+ i 1)))))
(check-sat)